logs/drand/ip/drand-07-075-2.lp
\ LP format - for model browsing. Use MPS format to capture full model detail.
Minimize
  z0 + z1 + z2 + z3 + z4 + z5 + z6 + z7
Subject To
 R0: x0,1_10 + x0,1_14 + x0,1_24 + x0,1_36 + x0,1_47 + x0,1_61 + x0,1_63
   - z1 <= 0
 R1: x0,2_10 + x0,2_14 + x0,2_24 + x0,2_36 + x0,2_47 + x0,2_61 + x0,2_63
   - z2 <= 0
 R2: x0,3_10 + x0,3_14 + x0,3_24 + x0,3_36 + x0,3_47 + x0,3_61 + x0,3_63
   - z3 <= 0
 R3: x0,4_10 + x0,4_14 + x0,4_24 + x0,4_36 + x0,4_47 + x0,4_61 + x0,4_63
   - z4 <= 0
 R4: x0,5_10 + x0,5_14 + x0,5_24 + x0,5_36 + x0,5_47 + x0,5_61 + x0,5_63
   - z5 <= 0
 R5: x0,6_10 + x0,6_14 + x0,6_24 + x0,6_36 + x0,6_47 + x0,6_61 + x0,6_63
   - z6 <= 0
 R6: x0,7_10 + x0,7_14 + x0,7_24 + x0,7_36 + x0,7_47 + x0,7_61 + x0,7_63
   - z7 <= 0
 R7: x1,2_10 + x1,2_14 + x1,2_24 + x1,2_36 + x1,2_47 + x1,2_61 + x1,2_63
   - z2 <= 0
 R8: x1,3_10 + x1,3_14 + x1,3_24 + x1,3_36 + x1,3_47 + x1,3_61 + x1,3_63
   - z3 <= 0
 R9: x1,4_10 + x1,4_14 + x1,4_24 + x1,4_36 + x1,4_47 + x1,4_61 + x1,4_63
   - z4 <= 0
 R10: x1,5_10 + x1,5_14 + x1,5_24 + x1,5_36 + x1,5_47 + x1,5_61 + x1,5_63
   - z5 <= 0
 R11: x1,6_10 + x1,6_14 + x1,6_24 + x1,6_36 + x1,6_47 + x1,6_61 + x1,6_63
   - z6 <= 0
 R12: x1,7_10 + x1,7_14 + x1,7_24 + x1,7_36 + x1,7_47 + x1,7_61 + x1,7_63
   - z7 <= 0
 R13: x2,3_10 + x2,3_14 + x2,3_24 + x2,3_36 + x2,3_47 + x2,3_61 + x2,3_63
   - z3 <= 0
 R14: x2,4_10 + x2,4_14 + x2,4_24 + x2,4_36 + x2,4_47 + x2,4_61 + x2,4_63
   - z4 <= 0
 R15: x2,5_10 + x2,5_14 + x2,5_24 + x2,5_36 + x2,5_47 + x2,5_61 + x2,5_63
   - z5 <= 0
 R16: x2,6_10 + x2,6_14 + x2,6_24 + x2,6_36 + x2,6_47 + x2,6_61 + x2,6_63
   - z6 <= 0
 R17: x2,7_10 + x2,7_14 + x2,7_24 + x2,7_36 + x2,7_47 + x2,7_61 + x2,7_63
   - z7 <= 0
 R18: x3,4_10 + x3,4_14 + x3,4_24 + x3,4_36 + x3,4_47 + x3,4_61 + x3,4_63
   - z4 <= 0
 R19: x3,5_10 + x3,5_14 + x3,5_24 + x3,5_36 + x3,5_47 + x3,5_61 + x3,5_63
   - z5 <= 0
 R20: x3,6_10 + x3,6_14 + x3,6_24 + x3,6_36 + x3,6_47 + x3,6_61 + x3,6_63
   - z6 <= 0
 R21: x3,7_10 + x3,7_14 + x3,7_24 + x3,7_36 + x3,7_47 + x3,7_61 + x3,7_63
   - z7 <= 0
 R22: x4,5_10 + x4,5_14 + x4,5_24 + x4,5_36 + x4,5_47 + x4,5_61 + x4,5_63
   - z5 <= 0
 R23: x4,6_10 + x4,6_14 + x4,6_24 + x4,6_36 + x4,6_47 + x4,6_61 + x4,6_63
   - z6 <= 0
 R24: x4,7_10 + x4,7_14 + x4,7_24 + x4,7_36 + x4,7_47 + x4,7_61 + x4,7_63
   - z7 <= 0
 R25: x5,6_10 + x5,6_14 + x5,6_24 + x5,6_36 + x5,6_47 + x5,6_61 + x5,6_63
   - z6 <= 0
 R26: x5,7_10 + x5,7_14 + x5,7_24 + x5,7_36 + x5,7_47 + x5,7_61 + x5,7_63
   - z7 <= 0
 R27: x6,7_10 + x6,7_14 + x6,7_24 + x6,7_36 + x6,7_47 + x6,7_61 + x6,7_63
   - z7 <= 0
 R28: x0,1_10 + x0,2_10 + x0,3_10 + x0,4_10 + x0,5_10 + x0,6_10 + x0,7_10
   + x1,2_10 + x1,3_10 + x1,4_10 + x1,5_10 + x1,6_10 + x1,7_10 + x2,3_10
   + x2,4_10 + x2,5_10 + x2,6_10 + x2,7_10 + x3,4_10 + x3,5_10 + x3,6_10
   + x3,7_10 + x4,5_10 + x4,6_10 + x4,7_10 + x5,6_10 + x5,7_10 + x6,7_10
   = 1
 R29: x0,1_14 + x0,2_14 + x0,3_14 + x0,4_14 + x0,5_14 + x0,6_14 + x0,7_14
   + x1,2_14 + x1,3_14 + x1,4_14 + x1,5_14 + x1,6_14 + x1,7_14 + x2,3_14
   + x2,4_14 + x2,5_14 + x2,6_14 + x2,7_14 + x3,4_14 + x3,5_14 + x3,6_14
   + x3,7_14 + x4,5_14 + x4,6_14 + x4,7_14 + x5,6_14 + x5,7_14 + x6,7_14
   = 1
 R30: x0,1_24 + x0,2_24 + x0,3_24 + x0,4_24 + x0,5_24 + x0,6_24 + x0,7_24
   + x1,2_24 + x1,3_24 + x1,4_24 + x1,5_24 + x1,6_24 + x1,7_24 + x2,3_24
   + x2,4_24 + x2,5_24 + x2,6_24 + x2,7_24 + x3,4_24 + x3,5_24 + x3,6_24
   + x3,7_24 + x4,5_24 + x4,6_24 + x4,7_24 + x5,6_24 + x5,7_24 + x6,7_24
   = 1
 R31: x0,1_36 + x0,2_36 + x0,3_36 + x0,4_36 + x0,5_36 + x0,6_36 + x0,7_36
   + x1,2_36 + x1,3_36 + x1,4_36 + x1,5_36 + x1,6_36 + x1,7_36 + x2,3_36
   + x2,4_36 + x2,5_36 + x2,6_36 + x2,7_36 + x3,4_36 + x3,5_36 + x3,6_36
   + x3,7_36 + x4,5_36 + x4,6_36 + x4,7_36 + x5,6_36 + x5,7_36 + x6,7_36
   = 1
 R32: x0,1_47 + x0,2_47 + x0,3_47 + x0,4_47 + x0,5_47 + x0,6_47 + x0,7_47
   + x1,2_47 + x1,3_47 + x1,4_47 + x1,5_47 + x1,6_47 + x1,7_47 + x2,3_47
   + x2,4_47 + x2,5_47 + x2,6_47 + x2,7_47 + x3,4_47 + x3,5_47 + x3,6_47
   + x3,7_47 + x4,5_47 + x4,6_47 + x4,7_47 + x5,6_47 + x5,7_47 + x6,7_47
   = 1
 R33: x0,1_61 + x0,2_61 + x0,3_61 + x0,4_61 + x0,5_61 + x0,6_61 + x0,7_61
   + x1,2_61 + x1,3_61 + x1,4_61 + x1,5_61 + x1,6_61 + x1,7_61 + x2,3_61
   + x2,4_61 + x2,5_61 + x2,6_61 + x2,7_61 + x3,4_61 + x3,5_61 + x3,6_61
   + x3,7_61 + x4,5_61 + x4,6_61 + x4,7_61 + x5,6_61 + x5,7_61 + x6,7_61
   = 1
 R34: x0,1_63 + x0,2_63 + x0,3_63 + x0,4_63 + x0,5_63 + x0,6_63 + x0,7_63
   + x1,2_63 + x1,3_63 + x1,4_63 + x1,5_63 + x1,6_63 + x1,7_63 + x2,3_63
   + x2,4_63 + x2,5_63 + x2,6_63 + x2,7_63 + x3,4_63 + x3,5_63 + x3,6_63
   + x3,7_63 + x4,5_63 + x4,6_63 + x4,7_63 + x5,6_63 + x5,7_63 + x6,7_63
   = 1
 R35: p0 - p1 <= -1
 R36: - 10 x0,1_10 - p0 + p1 >= 0
 R37: 255 x0,1_10 - p0 + p1 <= 265
 R38: - 14 x0,1_14 - p0 + p1 >= 0
 R39: 255 x0,1_14 - p0 + p1 <= 269
 R40: - 24 x0,1_24 - p0 + p1 >= 0
 R41: 255 x0,1_24 - p0 + p1 <= 279
 R42: - 36 x0,1_36 - p0 + p1 >= 0
 R43: 255 x0,1_36 - p0 + p1 <= 291
 R44: - 47 x0,1_47 - p0 + p1 >= 0
 R45: 255 x0,1_47 - p0 + p1 <= 302
 R46: - 61 x0,1_61 - p0 + p1 >= 0
 R47: 255 x0,1_61 - p0 + p1 <= 316
 R48: - 63 x0,1_63 - p0 + p1 >= 0
 R49: 255 x0,1_63 - p0 + p1 <= 318
 R50: p0 - p2 <= -1
 R51: - 10 x0,2_10 - p0 + p2 >= 0
 R52: 255 x0,2_10 - p0 + p2 <= 265
 R53: - 14 x0,2_14 - p0 + p2 >= 0
 R54: 255 x0,2_14 - p0 + p2 <= 269
 R55: - 24 x0,2_24 - p0 + p2 >= 0
 R56: 255 x0,2_24 - p0 + p2 <= 279
 R57: - 36 x0,2_36 - p0 + p2 >= 0
 R58: 255 x0,2_36 - p0 + p2 <= 291
 R59: - 47 x0,2_47 - p0 + p2 >= 0
 R60: 255 x0,2_47 - p0 + p2 <= 302
 R61: - 61 x0,2_61 - p0 + p2 >= 0
 R62: 255 x0,2_61 - p0 + p2 <= 316
 R63: - 63 x0,2_63 - p0 + p2 >= 0
 R64: 255 x0,2_63 - p0 + p2 <= 318
 R65: p0 - p3 <= -1
 R66: - 10 x0,3_10 - p0 + p3 >= 0
 R67: 255 x0,3_10 - p0 + p3 <= 265
 R68: - 14 x0,3_14 - p0 + p3 >= 0
 R69: 255 x0,3_14 - p0 + p3 <= 269
 R70: - 24 x0,3_24 - p0 + p3 >= 0
 R71: 255 x0,3_24 - p0 + p3 <= 279
 R72: - 36 x0,3_36 - p0 + p3 >= 0
 R73: 255 x0,3_36 - p0 + p3 <= 291
 R74: - 47 x0,3_47 - p0 + p3 >= 0
 R75: 255 x0,3_47 - p0 + p3 <= 302
 R76: - 61 x0,3_61 - p0 + p3 >= 0
 R77: 255 x0,3_61 - p0 + p3 <= 316
 R78: - 63 x0,3_63 - p0 + p3 >= 0
 R79: 255 x0,3_63 - p0 + p3 <= 318
 R80: p0 - p4 <= -1
 R81: - 10 x0,4_10 - p0 + p4 >= 0
 R82: 255 x0,4_10 - p0 + p4 <= 265
 R83: - 14 x0,4_14 - p0 + p4 >= 0
 R84: 255 x0,4_14 - p0 + p4 <= 269
 R85: - 24 x0,4_24 - p0 + p4 >= 0
 R86: 255 x0,4_24 - p0 + p4 <= 279
 R87: - 36 x0,4_36 - p0 + p4 >= 0
 R88: 255 x0,4_36 - p0 + p4 <= 291
 R89: - 47 x0,4_47 - p0 + p4 >= 0
 R90: 255 x0,4_47 - p0 + p4 <= 302
 R91: - 61 x0,4_61 - p0 + p4 >= 0
 R92: 255 x0,4_61 - p0 + p4 <= 316
 R93: - 63 x0,4_63 - p0 + p4 >= 0
 R94: 255 x0,4_63 - p0 + p4 <= 318
 R95: p0 - p5 <= -1
 R96: - 10 x0,5_10 - p0 + p5 >= 0
 R97: 255 x0,5_10 - p0 + p5 <= 265
 R98: - 14 x0,5_14 - p0 + p5 >= 0
 R99: 255 x0,5_14 - p0 + p5 <= 269
 R100: - 24 x0,5_24 - p0 + p5 >= 0
 R101: 255 x0,5_24 - p0 + p5 <= 279
 R102: - 36 x0,5_36 - p0 + p5 >= 0
 R103: 255 x0,5_36 - p0 + p5 <= 291
 R104: - 47 x0,5_47 - p0 + p5 >= 0
 R105: 255 x0,5_47 - p0 + p5 <= 302
 R106: - 61 x0,5_61 - p0 + p5 >= 0
 R107: 255 x0,5_61 - p0 + p5 <= 316
 R108: - 63 x0,5_63 - p0 + p5 >= 0
 R109: 255 x0,5_63 - p0 + p5 <= 318
 R110: p0 - p6 <= -1
 R111: - 10 x0,6_10 - p0 + p6 >= 0
 R112: 255 x0,6_10 - p0 + p6 <= 265
 R113: - 14 x0,6_14 - p0 + p6 >= 0
 R114: 255 x0,6_14 - p0 + p6 <= 269
 R115: - 24 x0,6_24 - p0 + p6 >= 0
 R116: 255 x0,6_24 - p0 + p6 <= 279
 R117: - 36 x0,6_36 - p0 + p6 >= 0
 R118: 255 x0,6_36 - p0 + p6 <= 291
 R119: - 47 x0,6_47 - p0 + p6 >= 0
 R120: 255 x0,6_47 - p0 + p6 <= 302
 R121: - 61 x0,6_61 - p0 + p6 >= 0
 R122: 255 x0,6_61 - p0 + p6 <= 316
 R123: - 63 x0,6_63 - p0 + p6 >= 0
 R124: 255 x0,6_63 - p0 + p6 <= 318
 R125: p0 - p7 <= -1
 R126: - 10 x0,7_10 - p0 + p7 >= 0
 R127: 255 x0,7_10 - p0 + p7 <= 265
 R128: - 14 x0,7_14 - p0 + p7 >= 0
 R129: 255 x0,7_14 - p0 + p7 <= 269
 R130: - 24 x0,7_24 - p0 + p7 >= 0
 R131: 255 x0,7_24 - p0 + p7 <= 279
 R132: - 36 x0,7_36 - p0 + p7 >= 0
 R133: 255 x0,7_36 - p0 + p7 <= 291
 R134: - 47 x0,7_47 - p0 + p7 >= 0
 R135: 255 x0,7_47 - p0 + p7 <= 302
 R136: - 61 x0,7_61 - p0 + p7 >= 0
 R137: 255 x0,7_61 - p0 + p7 <= 316
 R138: - 63 x0,7_63 - p0 + p7 >= 0
 R139: 255 x0,7_63 - p0 + p7 <= 318
 R140: p1 - p2 <= -1
 R141: - 10 x1,2_10 - p1 + p2 >= 0
 R142: 255 x1,2_10 - p1 + p2 <= 265
 R143: - 14 x1,2_14 - p1 + p2 >= 0
 R144: 255 x1,2_14 - p1 + p2 <= 269
 R145: - 24 x1,2_24 - p1 + p2 >= 0
 R146: 255 x1,2_24 - p1 + p2 <= 279
 R147: - 36 x1,2_36 - p1 + p2 >= 0
 R148: 255 x1,2_36 - p1 + p2 <= 291
 R149: - 47 x1,2_47 - p1 + p2 >= 0
 R150: 255 x1,2_47 - p1 + p2 <= 302
 R151: - 61 x1,2_61 - p1 + p2 >= 0
 R152: 255 x1,2_61 - p1 + p2 <= 316
 R153: - 63 x1,2_63 - p1 + p2 >= 0
 R154: 255 x1,2_63 - p1 + p2 <= 318
 R155: p1 - p3 <= -1
 R156: - 10 x1,3_10 - p1 + p3 >= 0
 R157: 255 x1,3_10 - p1 + p3 <= 265
 R158: - 14 x1,3_14 - p1 + p3 >= 0
 R159: 255 x1,3_14 - p1 + p3 <= 269
 R160: - 24 x1,3_24 - p1 + p3 >= 0
 R161: 255 x1,3_24 - p1 + p3 <= 279
 R162: - 36 x1,3_36 - p1 + p3 >= 0
 R163: 255 x1,3_36 - p1 + p3 <= 291
 R164: - 47 x1,3_47 - p1 + p3 >= 0
 R165: 255 x1,3_47 - p1 + p3 <= 302
 R166: - 61 x1,3_61 - p1 + p3 >= 0
 R167: 255 x1,3_61 - p1 + p3 <= 316
 R168: - 63 x1,3_63 - p1 + p3 >= 0
 R169: 255 x1,3_63 - p1 + p3 <= 318
 R170: p1 - p4 <= -1
 R171: - 10 x1,4_10 - p1 + p4 >= 0
 R172: 255 x1,4_10 - p1 + p4 <= 265
 R173: - 14 x1,4_14 - p1 + p4 >= 0
 R174: 255 x1,4_14 - p1 + p4 <= 269
 R175: - 24 x1,4_24 - p1 + p4 >= 0
 R176: 255 x1,4_24 - p1 + p4 <= 279
 R177: - 36 x1,4_36 - p1 + p4 >= 0
 R178: 255 x1,4_36 - p1 + p4 <= 291
 R179: - 47 x1,4_47 - p1 + p4 >= 0
 R180: 255 x1,4_47 - p1 + p4 <= 302
 R181: - 61 x1,4_61 - p1 + p4 >= 0
 R182: 255 x1,4_61 - p1 + p4 <= 316
 R183: - 63 x1,4_63 - p1 + p4 >= 0
 R184: 255 x1,4_63 - p1 + p4 <= 318
 R185: p1 - p5 <= -1
 R186: - 10 x1,5_10 - p1 + p5 >= 0
 R187: 255 x1,5_10 - p1 + p5 <= 265
 R188: - 14 x1,5_14 - p1 + p5 >= 0
 R189: 255 x1,5_14 - p1 + p5 <= 269
 R190: - 24 x1,5_24 - p1 + p5 >= 0
 R191: 255 x1,5_24 - p1 + p5 <= 279
 R192: - 36 x1,5_36 - p1 + p5 >= 0
 R193: 255 x1,5_36 - p1 + p5 <= 291
 R194: - 47 x1,5_47 - p1 + p5 >= 0
 R195: 255 x1,5_47 - p1 + p5 <= 302
 R196: - 61 x1,5_61 - p1 + p5 >= 0
 R197: 255 x1,5_61 - p1 + p5 <= 316
 R198: - 63 x1,5_63 - p1 + p5 >= 0
 R199: 255 x1,5_63 - p1 + p5 <= 318
 R200: p1 - p6 <= -1
 R201: - 10 x1,6_10 - p1 + p6 >= 0
 R202: 255 x1,6_10 - p1 + p6 <= 265
 R203: - 14 x1,6_14 - p1 + p6 >= 0
 R204: 255 x1,6_14 - p1 + p6 <= 269
 R205: - 24 x1,6_24 - p1 + p6 >= 0
 R206: 255 x1,6_24 - p1 + p6 <= 279
 R207: - 36 x1,6_36 - p1 + p6 >= 0
 R208: 255 x1,6_36 - p1 + p6 <= 291
 R209: - 47 x1,6_47 - p1 + p6 >= 0
 R210: 255 x1,6_47 - p1 + p6 <= 302
 R211: - 61 x1,6_61 - p1 + p6 >= 0
 R212: 255 x1,6_61 - p1 + p6 <= 316
 R213: - 63 x1,6_63 - p1 + p6 >= 0
 R214: 255 x1,6_63 - p1 + p6 <= 318
 R215: p1 - p7 <= -1
 R216: - 10 x1,7_10 - p1 + p7 >= 0
 R217: 255 x1,7_10 - p1 + p7 <= 265
 R218: - 14 x1,7_14 - p1 + p7 >= 0
 R219: 255 x1,7_14 - p1 + p7 <= 269
 R220: - 24 x1,7_24 - p1 + p7 >= 0
 R221: 255 x1,7_24 - p1 + p7 <= 279
 R222: - 36 x1,7_36 - p1 + p7 >= 0
 R223: 255 x1,7_36 - p1 + p7 <= 291
 R224: - 47 x1,7_47 - p1 + p7 >= 0
 R225: 255 x1,7_47 - p1 + p7 <= 302
 R226: - 61 x1,7_61 - p1 + p7 >= 0
 R227: 255 x1,7_61 - p1 + p7 <= 316
 R228: - 63 x1,7_63 - p1 + p7 >= 0
 R229: 255 x1,7_63 - p1 + p7 <= 318
 R230: p2 - p3 <= -1
 R231: - 10 x2,3_10 - p2 + p3 >= 0
 R232: 255 x2,3_10 - p2 + p3 <= 265
 R233: - 14 x2,3_14 - p2 + p3 >= 0
 R234: 255 x2,3_14 - p2 + p3 <= 269
 R235: - 24 x2,3_24 - p2 + p3 >= 0
 R236: 255 x2,3_24 - p2 + p3 <= 279
 R237: - 36 x2,3_36 - p2 + p3 >= 0
 R238: 255 x2,3_36 - p2 + p3 <= 291
 R239: - 47 x2,3_47 - p2 + p3 >= 0
 R240: 255 x2,3_47 - p2 + p3 <= 302
 R241: - 61 x2,3_61 - p2 + p3 >= 0
 R242: 255 x2,3_61 - p2 + p3 <= 316
 R243: - 63 x2,3_63 - p2 + p3 >= 0
 R244: 255 x2,3_63 - p2 + p3 <= 318
 R245: p2 - p4 <= -1
 R246: - 10 x2,4_10 - p2 + p4 >= 0
 R247: 255 x2,4_10 - p2 + p4 <= 265
 R248: - 14 x2,4_14 - p2 + p4 >= 0
 R249: 255 x2,4_14 - p2 + p4 <= 269
 R250: - 24 x2,4_24 - p2 + p4 >= 0
 R251: 255 x2,4_24 - p2 + p4 <= 279
 R252: - 36 x2,4_36 - p2 + p4 >= 0
 R253: 255 x2,4_36 - p2 + p4 <= 291
 R254: - 47 x2,4_47 - p2 + p4 >= 0
 R255: 255 x2,4_47 - p2 + p4 <= 302
 R256: - 61 x2,4_61 - p2 + p4 >= 0
 R257: 255 x2,4_61 - p2 + p4 <= 316
 R258: - 63 x2,4_63 - p2 + p4 >= 0
 R259: 255 x2,4_63 - p2 + p4 <= 318
 R260: p2 - p5 <= -1
 R261: - 10 x2,5_10 - p2 + p5 >= 0
 R262: 255 x2,5_10 - p2 + p5 <= 265
 R263: - 14 x2,5_14 - p2 + p5 >= 0
 R264: 255 x2,5_14 - p2 + p5 <= 269
 R265: - 24 x2,5_24 - p2 + p5 >= 0
 R266: 255 x2,5_24 - p2 + p5 <= 279
 R267: - 36 x2,5_36 - p2 + p5 >= 0
 R268: 255 x2,5_36 - p2 + p5 <= 291
 R269: - 47 x2,5_47 - p2 + p5 >= 0
 R270: 255 x2,5_47 - p2 + p5 <= 302
 R271: - 61 x2,5_61 - p2 + p5 >= 0
 R272: 255 x2,5_61 - p2 + p5 <= 316
 R273: - 63 x2,5_63 - p2 + p5 >= 0
 R274: 255 x2,5_63 - p2 + p5 <= 318
 R275: p2 - p6 <= -1
 R276: - 10 x2,6_10 - p2 + p6 >= 0
 R277: 255 x2,6_10 - p2 + p6 <= 265
 R278: - 14 x2,6_14 - p2 + p6 >= 0
 R279: 255 x2,6_14 - p2 + p6 <= 269
 R280: - 24 x2,6_24 - p2 + p6 >= 0
 R281: 255 x2,6_24 - p2 + p6 <= 279
 R282: - 36 x2,6_36 - p2 + p6 >= 0
 R283: 255 x2,6_36 - p2 + p6 <= 291
 R284: - 47 x2,6_47 - p2 + p6 >= 0
 R285: 255 x2,6_47 - p2 + p6 <= 302
 R286: - 61 x2,6_61 - p2 + p6 >= 0
 R287: 255 x2,6_61 - p2 + p6 <= 316
 R288: - 63 x2,6_63 - p2 + p6 >= 0
 R289: 255 x2,6_63 - p2 + p6 <= 318
 R290: p2 - p7 <= -1
 R291: - 10 x2,7_10 - p2 + p7 >= 0
 R292: 255 x2,7_10 - p2 + p7 <= 265
 R293: - 14 x2,7_14 - p2 + p7 >= 0
 R294: 255 x2,7_14 - p2 + p7 <= 269
 R295: - 24 x2,7_24 - p2 + p7 >= 0
 R296: 255 x2,7_24 - p2 + p7 <= 279
 R297: - 36 x2,7_36 - p2 + p7 >= 0
 R298: 255 x2,7_36 - p2 + p7 <= 291
 R299: - 47 x2,7_47 - p2 + p7 >= 0
 R300: 255 x2,7_47 - p2 + p7 <= 302
 R301: - 61 x2,7_61 - p2 + p7 >= 0
 R302: 255 x2,7_61 - p2 + p7 <= 316
 R303: - 63 x2,7_63 - p2 + p7 >= 0
 R304: 255 x2,7_63 - p2 + p7 <= 318
 R305: p3 - p4 <= -1
 R306: - 10 x3,4_10 - p3 + p4 >= 0
 R307: 255 x3,4_10 - p3 + p4 <= 265
 R308: - 14 x3,4_14 - p3 + p4 >= 0
 R309: 255 x3,4_14 - p3 + p4 <= 269
 R310: - 24 x3,4_24 - p3 + p4 >= 0
 R311: 255 x3,4_24 - p3 + p4 <= 279
 R312: - 36 x3,4_36 - p3 + p4 >= 0
 R313: 255 x3,4_36 - p3 + p4 <= 291
 R314: - 47 x3,4_47 - p3 + p4 >= 0
 R315: 255 x3,4_47 - p3 + p4 <= 302
 R316: - 61 x3,4_61 - p3 + p4 >= 0
 R317: 255 x3,4_61 - p3 + p4 <= 316
 R318: - 63 x3,4_63 - p3 + p4 >= 0
 R319: 255 x3,4_63 - p3 + p4 <= 318
 R320: p3 - p5 <= -1
 R321: - 10 x3,5_10 - p3 + p5 >= 0
 R322: 255 x3,5_10 - p3 + p5 <= 265
 R323: - 14 x3,5_14 - p3 + p5 >= 0
 R324: 255 x3,5_14 - p3 + p5 <= 269
 R325: - 24 x3,5_24 - p3 + p5 >= 0
 R326: 255 x3,5_24 - p3 + p5 <= 279
 R327: - 36 x3,5_36 - p3 + p5 >= 0
 R328: 255 x3,5_36 - p3 + p5 <= 291
 R329: - 47 x3,5_47 - p3 + p5 >= 0
 R330: 255 x3,5_47 - p3 + p5 <= 302
 R331: - 61 x3,5_61 - p3 + p5 >= 0
 R332: 255 x3,5_61 - p3 + p5 <= 316
 R333: - 63 x3,5_63 - p3 + p5 >= 0
 R334: 255 x3,5_63 - p3 + p5 <= 318
 R335: p3 - p6 <= -1
 R336: - 10 x3,6_10 - p3 + p6 >= 0
 R337: 255 x3,6_10 - p3 + p6 <= 265
 R338: - 14 x3,6_14 - p3 + p6 >= 0
 R339: 255 x3,6_14 - p3 + p6 <= 269
 R340: - 24 x3,6_24 - p3 + p6 >= 0
 R341: 255 x3,6_24 - p3 + p6 <= 279
 R342: - 36 x3,6_36 - p3 + p6 >= 0
 R343: 255 x3,6_36 - p3 + p6 <= 291
 R344: - 47 x3,6_47 - p3 + p6 >= 0
 R345: 255 x3,6_47 - p3 + p6 <= 302
 R346: - 61 x3,6_61 - p3 + p6 >= 0
 R347: 255 x3,6_61 - p3 + p6 <= 316
 R348: - 63 x3,6_63 - p3 + p6 >= 0
 R349: 255 x3,6_63 - p3 + p6 <= 318
 R350: p3 - p7 <= -1
 R351: - 10 x3,7_10 - p3 + p7 >= 0
 R352: 255 x3,7_10 - p3 + p7 <= 265
 R353: - 14 x3,7_14 - p3 + p7 >= 0
 R354: 255 x3,7_14 - p3 + p7 <= 269
 R355: - 24 x3,7_24 - p3 + p7 >= 0
 R356: 255 x3,7_24 - p3 + p7 <= 279
 R357: - 36 x3,7_36 - p3 + p7 >= 0
 R358: 255 x3,7_36 - p3 + p7 <= 291
 R359: - 47 x3,7_47 - p3 + p7 >= 0
 R360: 255 x3,7_47 - p3 + p7 <= 302
 R361: - 61 x3,7_61 - p3 + p7 >= 0
 R362: 255 x3,7_61 - p3 + p7 <= 316
 R363: - 63 x3,7_63 - p3 + p7 >= 0
 R364: 255 x3,7_63 - p3 + p7 <= 318
 R365: p4 - p5 <= -1
 R366: - 10 x4,5_10 - p4 + p5 >= 0
 R367: 255 x4,5_10 - p4 + p5 <= 265
 R368: - 14 x4,5_14 - p4 + p5 >= 0
 R369: 255 x4,5_14 - p4 + p5 <= 269
 R370: - 24 x4,5_24 - p4 + p5 >= 0
 R371: 255 x4,5_24 - p4 + p5 <= 279
 R372: - 36 x4,5_36 - p4 + p5 >= 0
 R373: 255 x4,5_36 - p4 + p5 <= 291
 R374: - 47 x4,5_47 - p4 + p5 >= 0
 R375: 255 x4,5_47 - p4 + p5 <= 302
 R376: - 61 x4,5_61 - p4 + p5 >= 0
 R377: 255 x4,5_61 - p4 + p5 <= 316
 R378: - 63 x4,5_63 - p4 + p5 >= 0
 R379: 255 x4,5_63 - p4 + p5 <= 318
 R380: p4 - p6 <= -1
 R381: - 10 x4,6_10 - p4 + p6 >= 0
 R382: 255 x4,6_10 - p4 + p6 <= 265
 R383: - 14 x4,6_14 - p4 + p6 >= 0
 R384: 255 x4,6_14 - p4 + p6 <= 269
 R385: - 24 x4,6_24 - p4 + p6 >= 0
 R386: 255 x4,6_24 - p4 + p6 <= 279
 R387: - 36 x4,6_36 - p4 + p6 >= 0
 R388: 255 x4,6_36 - p4 + p6 <= 291
 R389: - 47 x4,6_47 - p4 + p6 >= 0
 R390: 255 x4,6_47 - p4 + p6 <= 302
 R391: - 61 x4,6_61 - p4 + p6 >= 0
 R392: 255 x4,6_61 - p4 + p6 <= 316
 R393: - 63 x4,6_63 - p4 + p6 >= 0
 R394: 255 x4,6_63 - p4 + p6 <= 318
 R395: p4 - p7 <= -1
 R396: - 10 x4,7_10 - p4 + p7 >= 0
 R397: 255 x4,7_10 - p4 + p7 <= 265
 R398: - 14 x4,7_14 - p4 + p7 >= 0
 R399: 255 x4,7_14 - p4 + p7 <= 269
 R400: - 24 x4,7_24 - p4 + p7 >= 0
 R401: 255 x4,7_24 - p4 + p7 <= 279
 R402: - 36 x4,7_36 - p4 + p7 >= 0
 R403: 255 x4,7_36 - p4 + p7 <= 291
 R404: - 47 x4,7_47 - p4 + p7 >= 0
 R405: 255 x4,7_47 - p4 + p7 <= 302
 R406: - 61 x4,7_61 - p4 + p7 >= 0
 R407: 255 x4,7_61 - p4 + p7 <= 316
 R408: - 63 x4,7_63 - p4 + p7 >= 0
 R409: 255 x4,7_63 - p4 + p7 <= 318
 R410: p5 - p6 <= -1
 R411: - 10 x5,6_10 - p5 + p6 >= 0
 R412: 255 x5,6_10 - p5 + p6 <= 265
 R413: - 14 x5,6_14 - p5 + p6 >= 0
 R414: 255 x5,6_14 - p5 + p6 <= 269
 R415: - 24 x5,6_24 - p5 + p6 >= 0
 R416: 255 x5,6_24 - p5 + p6 <= 279
 R417: - 36 x5,6_36 - p5 + p6 >= 0
 R418: 255 x5,6_36 - p5 + p6 <= 291
 R419: - 47 x5,6_47 - p5 + p6 >= 0
 R420: 255 x5,6_47 - p5 + p6 <= 302
 R421: - 61 x5,6_61 - p5 + p6 >= 0
 R422: 255 x5,6_61 - p5 + p6 <= 316
 R423: - 63 x5,6_63 - p5 + p6 >= 0
 R424: 255 x5,6_63 - p5 + p6 <= 318
 R425: p5 - p7 <= -1
 R426: - 10 x5,7_10 - p5 + p7 >= 0
 R427: 255 x5,7_10 - p5 + p7 <= 265
 R428: - 14 x5,7_14 - p5 + p7 >= 0
 R429: 255 x5,7_14 - p5 + p7 <= 269
 R430: - 24 x5,7_24 - p5 + p7 >= 0
 R431: 255 x5,7_24 - p5 + p7 <= 279
 R432: - 36 x5,7_36 - p5 + p7 >= 0
 R433: 255 x5,7_36 - p5 + p7 <= 291
 R434: - 47 x5,7_47 - p5 + p7 >= 0
 R435: 255 x5,7_47 - p5 + p7 <= 302
 R436: - 61 x5,7_61 - p5 + p7 >= 0
 R437: 255 x5,7_61 - p5 + p7 <= 316
 R438: - 63 x5,7_63 - p5 + p7 >= 0
 R439: 255 x5,7_63 - p5 + p7 <= 318
 R440: p6 - p7 <= -1
 R441: - 10 x6,7_10 - p6 + p7 >= 0
 R442: 255 x6,7_10 - p6 + p7 <= 265
 R443: - 14 x6,7_14 - p6 + p7 >= 0
 R444: 255 x6,7_14 - p6 + p7 <= 269
 R445: - 24 x6,7_24 - p6 + p7 >= 0
 R446: 255 x6,7_24 - p6 + p7 <= 279
 R447: - 36 x6,7_36 - p6 + p7 >= 0
 R448: 255 x6,7_36 - p6 + p7 <= 291
 R449: - 47 x6,7_47 - p6 + p7 >= 0
 R450: 255 x6,7_47 - p6 + p7 <= 302
 R451: - 61 x6,7_61 - p6 + p7 >= 0
 R452: 255 x6,7_61 - p6 + p7 <= 316
 R453: - 63 x6,7_63 - p6 + p7 >= 0
 R454: 255 x6,7_63 - p6 + p7 <= 318
 R455: z0 - z1 >= 0
 R456: z1 - z2 >= 0
 R457: z2 - z3 >= 0
 R458: z3 - z4 >= 0
 R459: z4 - z5 >= 0
 R460: z5 - z6 >= 0
 R461: z6 - z7 >= 0
Bounds
Binaries
 x0,1_10 x0,1_14 x0,1_24 x0,1_36 x0,1_47 x0,1_61 x0,1_63 x0,2_10 x0,2_14
 x0,2_24 x0,2_36 x0,2_47 x0,2_61 x0,2_63 x0,3_10 x0,3_14 x0,3_24 x0,3_36
 x0,3_47 x0,3_61 x0,3_63 x0,4_10 x0,4_14 x0,4_24 x0,4_36 x0,4_47 x0,4_61
 x0,4_63 x0,5_10 x0,5_14 x0,5_24 x0,5_36 x0,5_47 x0,5_61 x0,5_63 x0,6_10
 x0,6_14 x0,6_24 x0,6_36 x0,6_47 x0,6_61 x0,6_63 x0,7_10 x0,7_14 x0,7_24
 x0,7_36 x0,7_47 x0,7_61 x0,7_63 x1,2_10 x1,2_14 x1,2_24 x1,2_36 x1,2_47
 x1,2_61 x1,2_63 x1,3_10 x1,3_14 x1,3_24 x1,3_36 x1,3_47 x1,3_61 x1,3_63
 x1,4_10 x1,4_14 x1,4_24 x1,4_36 x1,4_47 x1,4_61 x1,4_63 x1,5_10 x1,5_14
 x1,5_24 x1,5_36 x1,5_47 x1,5_61 x1,5_63 x1,6_10 x1,6_14 x1,6_24 x1,6_36
 x1,6_47 x1,6_61 x1,6_63 x1,7_10 x1,7_14 x1,7_24 x1,7_36 x1,7_47 x1,7_61
 x1,7_63 x2,3_10 x2,3_14 x2,3_24 x2,3_36 x2,3_47 x2,3_61 x2,3_63 x2,4_10
 x2,4_14 x2,4_24 x2,4_36 x2,4_47 x2,4_61 x2,4_63 x2,5_10 x2,5_14 x2,5_24
 x2,5_36 x2,5_47 x2,5_61 x2,5_63 x2,6_10 x2,6_14 x2,6_24 x2,6_36 x2,6_47
 x2,6_61 x2,6_63 x2,7_10 x2,7_14 x2,7_24 x2,7_36 x2,7_47 x2,7_61 x2,7_63
 x3,4_10 x3,4_14 x3,4_24 x3,4_36 x3,4_47 x3,4_61 x3,4_63 x3,5_10 x3,5_14
 x3,5_24 x3,5_36 x3,5_47 x3,5_61 x3,5_63 x3,6_10 x3,6_14 x3,6_24 x3,6_36
 x3,6_47 x3,6_61 x3,6_63 x3,7_10 x3,7_14 x3,7_24 x3,7_36 x3,7_47 x3,7_61
 x3,7_63 x4,5_10 x4,5_14 x4,5_24 x4,5_36 x4,5_47 x4,5_61 x4,5_63 x4,6_10
 x4,6_14 x4,6_24 x4,6_36 x4,6_47 x4,6_61 x4,6_63 x4,7_10 x4,7_14 x4,7_24
 x4,7_36 x4,7_47 x4,7_61 x4,7_63 x5,6_10 x5,6_14 x5,6_24 x5,6_36 x5,6_47
 x5,6_61 x5,6_63 x5,7_10 x5,7_14 x5,7_24 x5,7_36 x5,7_47 x5,7_61 x5,7_63
 x6,7_10 x6,7_14 x6,7_24 x6,7_36 x6,7_47 x6,7_61 x6,7_63 z0 z1 z2 z3 z4 z5
 z6 z7
Generals
 p0 p1 p2 p3 p4 p5 p6 p7
End
