logs/drand/ip/drand-07-075-2.sol
# Objective value = 6
x0,1_10 0
x0,1_14 1
x0,1_24 0
x0,1_36 0
x0,1_47 0
x0,1_61 0
x0,1_63 0
x0,2_10 0
x0,2_14 0
x0,2_24 1
x0,2_36 0
x0,2_47 0
x0,2_61 0
x0,2_63 0
x0,3_10 0
x0,3_14 0
x0,3_24 0
x0,3_36 0
x0,3_47 0
x0,3_61 0
x0,3_63 0
x0,4_10 0
x0,4_14 0
x0,4_24 0
x0,4_36 0
x0,4_47 0
x0,4_61 1
x0,4_63 0
x0,5_10 0
x0,5_14 0
x0,5_24 0
x0,5_36 0
x0,5_47 0
x0,5_61 0
x0,5_63 1
x0,6_10 0
x0,6_14 0
x0,6_24 0
x0,6_36 0
x0,6_47 0
x0,6_61 0
x0,6_63 0
x0,7_10 0
x0,7_14 0
x0,7_24 0
x0,7_36 0
x0,7_47 0
x0,7_61 0
x0,7_63 0
x1,2_10 1
x1,2_14 0
x1,2_24 0
x1,2_36 0
x1,2_47 0
x1,2_61 0
x1,2_63 0
x1,3_10 0
x1,3_14 0
x1,3_24 0
x1,3_36 0
x1,3_47 0
x1,3_61 0
x1,3_63 0
x1,4_10 0
x1,4_14 0
x1,4_24 0
x1,4_36 0
x1,4_47 1
x1,4_61 0
x1,4_63 0
x1,5_10 0
x1,5_14 0
x1,5_24 0
x1,5_36 0
x1,5_47 0
x1,5_61 0
x1,5_63 0
x1,6_10 0
x1,6_14 0
x1,6_24 0
x1,6_36 0
x1,6_47 0
x1,6_61 0
x1,6_63 0
x1,7_10 0
x1,7_14 0
x1,7_24 0
x1,7_36 0
x1,7_47 0
x1,7_61 0
x1,7_63 0
x2,3_10 0
x2,3_14 0
x2,3_24 0
x2,3_36 1
x2,3_47 0
x2,3_61 0
x2,3_63 0
x2,4_10 0
x2,4_14 0
x2,4_24 0
x2,4_36 0
x2,4_47 0
x2,4_61 0
x2,4_63 0
x2,5_10 0
x2,5_14 0
x2,5_24 0
x2,5_36 0
x2,5_47 0
x2,5_61 0
x2,5_63 0
x2,6_10 0
x2,6_14 0
x2,6_24 0
x2,6_36 0
x2,6_47 0
x2,6_61 0
x2,6_63 0
x2,7_10 0
x2,7_14 0
x2,7_24 0
x2,7_36 0
x2,7_47 0
x2,7_61 0
x2,7_63 0
x3,4_10 0
x3,4_14 0
x3,4_24 0
x3,4_36 0
x3,4_47 0
x3,4_61 0
x3,4_63 0
x3,5_10 0
x3,5_14 0
x3,5_24 0
x3,5_36 0
x3,5_47 0
x3,5_61 0
x3,5_63 0
x3,6_10 0
x3,6_14 0
x3,6_24 0
x3,6_36 0
x3,6_47 0
x3,6_61 0
x3,6_63 0
x3,7_10 0
x3,7_14 0
x3,7_24 0
x3,7_36 0
x3,7_47 0
x3,7_61 0
x3,7_63 0
x4,5_10 0
x4,5_14 0
x4,5_24 0
x4,5_36 0
x4,5_47 0
x4,5_61 0
x4,5_63 0
x4,6_10 0
x4,6_14 0
x4,6_24 0
x4,6_36 0
x4,6_47 0
x4,6_61 0
x4,6_63 0
x4,7_10 0
x4,7_14 0
x4,7_24 0
x4,7_36 0
x4,7_47 0
x4,7_61 0
x4,7_63 0
x5,6_10 0
x5,6_14 0
x5,6_24 0
x5,6_36 0
x5,6_47 0
x5,6_61 0
x5,6_63 0
x5,7_10 0
x5,7_14 0
x5,7_24 0
x5,7_36 0
x5,7_47 0
x5,7_61 0
x5,7_63 0
x6,7_10 0
x6,7_14 0
x6,7_24 0
x6,7_36 0
x6,7_47 0
x6,7_61 0
x6,7_63 0
z0 1
z1 1
z2 1
z3 1
z4 1
z5 1
z6 0
z7 0
p0 2
p1 16
p2 26
p3 62
p4 63
p5 65
p6 66
p7 74
